# Solution for model asexual reproduction_srl_ilp
# Objective value = 2.2249536796430602e+00
Z_12_0_0 0
Z_12_0_1 0
Z_12_0_2 1
Z_12_0_3 0
Z_482_0_0 0
Z_482_0_1 0
Z_482_0_2 1
Z_482_0_3 0
Z_209_0_0 0
Z_209_0_1 0
Z_209_0_2 1
Z_209_0_3 0
Z_493_0_0 0
Z_493_0_1 0
Z_493_0_2 1
Z_493_0_3 0
